NAME : Cells
COMMENT : 84 cells
TYPE : TSP
DIMENSION : 84
EDGE_WEIGHT_TYPE : EUC_2D
NODE_COORD_SECTION
1 167 538
2 146 535
3 246 533
4 506 528
5 176 525
6 493 518
7 137 517
8 297 514
9 200 488
10 269 467
11 196 461
12 11 469
13 148 459
14 193 435
15 279 431
16 220 412
17 3 403
18 35 404
19 174 391
20 9 356
21 144 354
22 42 341
23 343 317
24 8 305
25 170 299
26 301 305
27 242 280
28 111 285
29 57 281
30 146 276
31 2 253
32 173 260
33 305 249
34 375 249
35 337 248
36 140 233
37 243 226
38 185 222
39 368 218
40 27 213
41 311 207
42 407 200
43 230 194
44 355 192
45 148 191
46 187 188
47 259 190
48 101 184
49 412 174
50 209 168
51 309 171
52 342 168
53 132 161
54 422 151
55 374 150
56 329 144
57 216 139
58 182 147
59 131 129
60 448 128
61 366 115
62 44 128
63 155 102
64 310 93
65 346 92
66 120 92
67 399 83
68 282 76
69 475 71
70 178 50
71 332 48
72 505 49
73 94 36
74 397 30
75 346 18
76 203 22
77 454 29
78 375 14
79 507 4
80 471 3
81 324 4
82 214 4
83 181 7
84 125 6
EOF
